60 60
0 0 11 23
11 0 11 23
22 0 9 23
31 0 7 22
38 0 6 22
44 0 10 19
44 19 13 18
54 0 3 18
57 0 3 15
57 19 3 15
0 23 35 13
35 23 3 13
38 23 5 13
0 36 21 11
57 34 2 10
21 36 2 10
23 36 9 9
32 36 11 8
44 37 3 8
32 44 12 7
47 37 4 7
0 47 20 5
44 45 11 5
21 46 11 5
44 50 9 5
51 37 4 5
55 37 2 5
57 44 3 5
0 52 13 5
13 52 14 4
32 51 9 4
53 50 4 4
57 15 2 4
32 55 9 4
57 49 3 4
44 55 12 4
13 56 10 4
0 57 11 3
51 42 3 3
54 42 2 3
55 45 2 3
27 52 4 2
27 54 5 2
23 56 4 2
31 22 6 1
37 22 7 1
